; benchmark generated from python API
(set-info :status unknown)
(declare-fun x_months () (_ BitVec 32))
(declare-fun x_beta () (_ BitVec 32))
(declare-fun y_months () (_ BitVec 32))
(declare-fun y_beta () (_ BitVec 32))
(assert
 (bvsle (_ bv4294966096 32) x_months))
(assert
 (bvsge (_ bv1199 32) x_months))
(assert
 (bvsle (_ bv0 32) x_beta))
(assert
 (let ((?x52499 (bvadd x_months (_ bv24003 32))))
 (let ((?x54262 (bvsub ?x52499 (bvmul (bvsdiv (bvsub ?x52499 (_ bv1 32)) (_ bv12 32)) (_ bv12 32)))))
 (let ((?x47802 (ite (or (= ?x54262 (_ bv4 32)) (= ?x54262 (_ bv6 32)) (= ?x54262 (_ bv9 32)) (= ?x54262 (_ bv11 32))) (_ bv30 32) (_ bv31 32))))
 (let (($x45654 (and (= (bvsmod (bvsdiv (bvsub ?x52499 (_ bv1 32)) (_ bv12 32)) (_ bv4 32)) (_ bv0 32)) (and (distinct (bvsmod (bvsdiv (bvsub ?x52499 (_ bv1 32)) (_ bv12 32)) (_ bv100 32)) (_ bv0 32)) true))))
 (let ((?x32437 (ite (or $x45654 (= (bvsmod (bvsdiv (bvsub ?x52499 (_ bv1 32)) (_ bv12 32)) (_ bv400 32)) (_ bv0 32))) (_ bv29 32) (_ bv28 32))))
 (bvslt x_beta (ite (= ?x54262 (_ bv2 32)) ?x32437 ?x47802))))))))
(assert
 (bvsle (_ bv4294966096 32) y_months))
(assert
 (bvsge (_ bv1199 32) y_months))
(assert
 (bvsle (_ bv0 32) y_beta))
(assert
 (let ((?x4094 (bvadd y_months (_ bv24003 32))))
 (let ((?x47741 (bvsub ?x4094 (bvmul (bvsdiv (bvsub ?x4094 (_ bv1 32)) (_ bv12 32)) (_ bv12 32)))))
 (let ((?x47645 (ite (or (= ?x47741 (_ bv4 32)) (= ?x47741 (_ bv6 32)) (= ?x47741 (_ bv9 32)) (= ?x47741 (_ bv11 32))) (_ bv30 32) (_ bv31 32))))
 (let (($x9018 (and (= (bvsmod (bvsdiv (bvsub ?x4094 (_ bv1 32)) (_ bv12 32)) (_ bv4 32)) (_ bv0 32)) (and (distinct (bvsmod (bvsdiv (bvsub ?x4094 (_ bv1 32)) (_ bv12 32)) (_ bv100 32)) (_ bv0 32)) true))))
 (let ((?x47122 (ite (or $x9018 (= (bvsmod (bvsdiv (bvsub ?x4094 (_ bv1 32)) (_ bv12 32)) (_ bv400 32)) (_ bv0 32))) (_ bv29 32) (_ bv28 32))))
 (bvslt y_beta (ite (= ?x47741 (_ bv2 32)) ?x47122 ?x47645))))))))
(assert
 (let (($x98131 (bvsle (_ bv0 32) x_beta)))
 (or (bvsgt x_months (bvsub (bvadd (bvmul (_ bv2023 32) (_ bv12 32)) (_ bv6 32)) (_ bv24003 32))) (and (= x_months (bvsub (bvadd (bvmul (_ bv2023 32) (_ bv12 32)) (_ bv6 32)) (_ bv24003 32))) $x98131))))
(assert
 (let ((?x27025 (bvadd x_beta (_ bv1 32))))
 (let ((?x89694 (bvsdiv (bvsub (bvadd (bvadd x_months (_ bv1 32)) (_ bv24003 32)) (_ bv1 32)) (_ bv12 32))))
 (let ((?x7304 (bvadd (bvadd x_months (_ bv1 32)) (_ bv24003 32))))
 (let ((?x8222 (bvsub ?x7304 (bvmul ?x89694 (_ bv12 32)))))
 (let ((?x88005 (ite (or (= ?x8222 (_ bv4 32)) (= ?x8222 (_ bv6 32)) (= ?x8222 (_ bv9 32)) (= ?x8222 (_ bv11 32))) (_ bv30 32) (_ bv31 32))))
 (let (($x24568 (or (and (= (bvsmod ?x89694 (_ bv4 32)) (_ bv0 32)) (and (distinct (bvsmod ?x89694 (_ bv100 32)) (_ bv0 32)) true)) (= (bvsmod ?x89694 (_ bv400 32)) (_ bv0 32)))))
 (let ((?x55180 (ite (= ?x8222 (_ bv2 32)) (ite $x24568 (_ bv29 32) (_ bv28 32)) ?x88005)))
 (let ((?x47397 (ite (bvsgt (_ bv1 32) ?x27025) (_ bv1 32) (ite (bvsgt ?x27025 ?x55180) ?x55180 ?x27025))))
 (let ((?x89657 (ite (bvsgt (_ bv1 32) ?x47397) (_ bv1 32) (ite (bvsgt ?x47397 ?x55180) ?x55180 ?x47397))))
 (let ((?x62564 (ite (= (_ bv2 32) ?x8222) (ite $x24568 (_ bv31 32) (_ bv31 32)) (ite (= (_ bv1 32) ?x8222) (ite $x24568 (_ bv0 32) (_ bv0 32)) (_ bv0 32)))))
 (let ((?x47898 (ite (= (_ bv4 32) ?x8222) (ite $x24568 (_ bv91 32) (_ bv90 32)) (ite (= (_ bv3 32) ?x8222) (ite $x24568 (_ bv60 32) (_ bv59 32)) ?x62564))))
 (let ((?x17796 (ite (= (_ bv6 32) ?x8222) (ite $x24568 (_ bv152 32) (_ bv151 32)) (ite (= (_ bv5 32) ?x8222) (ite $x24568 (_ bv121 32) (_ bv120 32)) ?x47898))))
 (let ((?x46699 (ite (= (_ bv8 32) ?x8222) (ite $x24568 (_ bv213 32) (_ bv212 32)) (ite (= (_ bv7 32) ?x8222) (ite $x24568 (_ bv182 32) (_ bv181 32)) ?x17796))))
 (let ((?x64360 (ite (= (_ bv10 32) ?x8222) (ite $x24568 (_ bv274 32) (_ bv273 32)) (ite (= (_ bv9 32) ?x8222) (ite $x24568 (_ bv244 32) (_ bv243 32)) ?x46699))))
 (let ((?x77394 (ite (= (_ bv12 32) ?x8222) (ite $x24568 (_ bv335 32) (_ bv334 32)) (ite (= (_ bv11 32) ?x8222) (ite $x24568 (_ bv305 32) (_ bv304 32)) ?x64360))))
 (let ((?x47755 (bvadd (bvmul (_ bv365 32) (bvsub ?x89694 (_ bv1 32))) (bvsdiv (bvsub ?x89694 (_ bv1 32)) (_ bv4 32)))))
 (let ((?x27254 (bvadd (bvsub ?x47755 (bvsdiv (bvsub ?x89694 (_ bv1 32)) (_ bv100 32))) (bvsdiv (bvsub ?x89694 (_ bv1 32)) (_ bv400 32)))))
 (let ((?x38607 (bvadd (bvadd (bvsub (bvadd (bvadd ?x27254 ?x77394) (bvsub ?x89657 (_ bv1 32))) (_ bv730179 32)) (_ bv0 32)) (_ bv730179 32))))
 (let ((?x62213 (bvsmod ?x38607 (_ bv146097 32))))
 (let ((?x50480 (bvsdiv ?x62213 (_ bv36524 32))))
 (let ((?x81192 (ite (bvsle (_ bv4 32) ?x50480) (_ bv3 32) ?x50480)))
 (let ((?x74114 (bvsub ?x62213 (bvmul ?x81192 (_ bv36524 32)))))
 (let ((?x89700 (bvsmod ?x74114 (_ bv1461 32))))
 (let ((?x54302 (bvsdiv ?x89700 (_ bv365 32))))
 (let ((?x91608 (ite (bvsle (_ bv4 32) ?x54302) (_ bv3 32) ?x54302)))
 (let ((?x35226 (bvadd (bvadd (bvmul (bvsdiv ?x38607 (_ bv146097 32)) (_ bv400 32)) (bvmul ?x81192 (_ bv100 32))) (bvmul (bvsdiv ?x74114 (_ bv1461 32)) (_ bv4 32)))))
 (let ((?x77239 (bvadd (bvadd ?x35226 ?x91608) (_ bv1 32))))
 (let (($x41717 (or (and (= (bvsmod ?x77239 (_ bv4 32)) (_ bv0 32)) (and (distinct (bvsmod ?x77239 (_ bv100 32)) (_ bv0 32)) true)) (= (bvsmod ?x77239 (_ bv400 32)) (_ bv0 32)))))
 (let ((?x71977 (bvsub ?x89700 (bvmul ?x91608 (_ bv365 32)))))
 (let ((?x3051 (ite $x41717 (_ bv31 32) (_ bv31 32))))
 (let (($x89690 (bvsge ?x71977 ?x3051)))
 (let ((?x53440 (ite $x89690 (bvadd (bvsub ?x71977 ?x3051) (_ bv1 32)) (bvadd (bvsub ?x71977 (ite $x41717 (_ bv0 32) (_ bv0 32))) (_ bv1 32)))))
 (let ((?x14015 (ite $x41717 (_ bv60 32) (_ bv59 32))))
 (let (($x54419 (bvsge ?x71977 ?x14015)))
 (let ((?x87087 (ite $x41717 (_ bv91 32) (_ bv90 32))))
 (let (($x47700 (bvsge ?x71977 ?x87087)))
 (let ((?x47540 (ite $x47700 (bvadd (bvsub ?x71977 ?x87087) (_ bv1 32)) (ite $x54419 (bvadd (bvsub ?x71977 ?x14015) (_ bv1 32)) ?x53440))))
 (let ((?x54988 (ite $x41717 (_ bv121 32) (_ bv120 32))))
 (let (($x46635 (bvsge ?x71977 ?x54988)))
 (let ((?x89660 (ite $x41717 (_ bv152 32) (_ bv151 32))))
 (let (($x6282 (bvsge ?x71977 ?x89660)))
 (let ((?x47179 (ite $x6282 (bvadd (bvsub ?x71977 ?x89660) (_ bv1 32)) (ite $x46635 (bvadd (bvsub ?x71977 ?x54988) (_ bv1 32)) ?x47540))))
 (let ((?x2028 (ite $x41717 (_ bv182 32) (_ bv181 32))))
 (let (($x47014 (bvsge ?x71977 ?x2028)))
 (let ((?x4569 (ite $x41717 (_ bv213 32) (_ bv212 32))))
 (let (($x47223 (bvsge ?x71977 ?x4569)))
 (let ((?x89651 (ite $x47223 (bvadd (bvsub ?x71977 ?x4569) (_ bv1 32)) (ite $x47014 (bvadd (bvsub ?x71977 ?x2028) (_ bv1 32)) ?x47179))))
 (let ((?x55518 (ite $x41717 (_ bv244 32) (_ bv243 32))))
 (let (($x89686 (bvsge ?x71977 ?x55518)))
 (let ((?x53889 (ite $x41717 (_ bv274 32) (_ bv273 32))))
 (let (($x47026 (bvsge ?x71977 ?x53889)))
 (let ((?x38566 (ite $x47026 (bvadd (bvsub ?x71977 ?x53889) (_ bv1 32)) (ite $x89686 (bvadd (bvsub ?x71977 ?x55518) (_ bv1 32)) ?x89651))))
 (let ((?x53580 (ite $x41717 (_ bv305 32) (_ bv304 32))))
 (let (($x89779 (bvsge ?x71977 ?x53580)))
 (let ((?x53409 (ite $x41717 (_ bv335 32) (_ bv334 32))))
 (let (($x89671 (bvsge ?x71977 ?x53409)))
 (let ((?x88680 (ite $x89671 (bvadd (bvsub ?x71977 ?x53409) (_ bv1 32)) (ite $x89779 (bvadd (bvsub ?x71977 ?x53580) (_ bv1 32)) ?x38566))))
 (let (($x5114 (= (_ bv0 32) (_ bv0 32))))
 (let ((?x80470 (bvadd (bvsub (ite $x5114 ?x89657 ?x88680) (_ bv1 32)) (_ bv1 32))))
 (let ((?x89538 (ite $x6282 (_ bv6 32) (ite $x46635 (_ bv5 32) (ite $x47700 (_ bv4 32) (ite $x54419 (_ bv3 32) (ite $x89690 (_ bv2 32) (_ bv1 32))))))))
 (let ((?x89648 (ite $x89779 (_ bv11 32) (ite $x47026 (_ bv10 32) (ite $x89686 (_ bv9 32) (ite $x47223 (_ bv8 32) (ite $x47014 (_ bv7 32) ?x89538)))))))
 (let ((?x55580 (bvadd (bvmul (ite $x5114 ?x89694 ?x77239) (_ bv12 32)) (ite $x5114 ?x8222 (ite $x89671 (_ bv12 32) ?x89648)))))
 (let ((?x15791 (bvadd (bvadd (bvsub ?x55580 (_ bv24003 32)) (_ bv0 32)) (_ bv24003 32))))
 (let ((?x41706 (bvsdiv (bvsub ?x15791 (_ bv1 32)) (_ bv12 32))))
 (let ((?x47502 (bvsub ?x15791 (bvmul ?x41706 (_ bv12 32)))))
 (let ((?x6407 (ite (or (= ?x47502 (_ bv4 32)) (= ?x47502 (_ bv6 32)) (= ?x47502 (_ bv9 32)) (= ?x47502 (_ bv11 32))) (_ bv30 32) (_ bv31 32))))
 (let (($x19840 (or (and (= (bvsmod ?x41706 (_ bv4 32)) (_ bv0 32)) (and (distinct (bvsmod ?x41706 (_ bv100 32)) (_ bv0 32)) true)) (= (bvsmod ?x41706 (_ bv400 32)) (_ bv0 32)))))
 (let ((?x77695 (ite (= ?x47502 (_ bv2 32)) (ite $x19840 (_ bv29 32) (_ bv28 32)) ?x6407)))
 (let ((?x80453 (ite (bvsgt (_ bv1 32) ?x80470) (_ bv1 32) (ite (bvsgt ?x80470 ?x77695) ?x77695 ?x80470))))
 (let ((?x52849 (ite (bvsgt (_ bv1 32) ?x80453) (_ bv1 32) (ite (bvsgt ?x80453 ?x77695) ?x77695 ?x80453))))
 (let ((?x83662 (ite (= (_ bv2 32) ?x47502) (ite $x19840 (_ bv31 32) (_ bv31 32)) (ite (= (_ bv1 32) ?x47502) (ite $x19840 (_ bv0 32) (_ bv0 32)) (_ bv0 32)))))
 (let ((?x53653 (ite (= (_ bv4 32) ?x47502) (ite $x19840 (_ bv91 32) (_ bv90 32)) (ite (= (_ bv3 32) ?x47502) (ite $x19840 (_ bv60 32) (_ bv59 32)) ?x83662))))
 (let ((?x67956 (ite (= (_ bv6 32) ?x47502) (ite $x19840 (_ bv152 32) (_ bv151 32)) (ite (= (_ bv5 32) ?x47502) (ite $x19840 (_ bv121 32) (_ bv120 32)) ?x53653))))
 (let ((?x89665 (ite (= (_ bv8 32) ?x47502) (ite $x19840 (_ bv213 32) (_ bv212 32)) (ite (= (_ bv7 32) ?x47502) (ite $x19840 (_ bv182 32) (_ bv181 32)) ?x67956))))
 (let ((?x52859 (ite (= (_ bv10 32) ?x47502) (ite $x19840 (_ bv274 32) (_ bv273 32)) (ite (= (_ bv9 32) ?x47502) (ite $x19840 (_ bv244 32) (_ bv243 32)) ?x89665))))
 (let ((?x80413 (ite (= (_ bv12 32) ?x47502) (ite $x19840 (_ bv335 32) (_ bv334 32)) (ite (= (_ bv11 32) ?x47502) (ite $x19840 (_ bv305 32) (_ bv304 32)) ?x52859))))
 (let ((?x39204 (bvadd (bvmul (_ bv365 32) (bvsub ?x41706 (_ bv1 32))) (bvsdiv (bvsub ?x41706 (_ bv1 32)) (_ bv4 32)))))
 (let ((?x59299 (bvadd (bvsub ?x39204 (bvsdiv (bvsub ?x41706 (_ bv1 32)) (_ bv100 32))) (bvsdiv (bvsub ?x41706 (_ bv1 32)) (_ bv400 32)))))
 (let ((?x6010 (bvadd (bvadd (bvsub (bvadd (bvadd ?x59299 ?x80413) (bvsub ?x52849 (_ bv1 32))) (_ bv730179 32)) (_ bv15 32)) (_ bv730179 32))))
 (let ((?x4659 (bvsmod ?x6010 (_ bv146097 32))))
 (let ((?x84449 (bvsdiv ?x4659 (_ bv36524 32))))
 (let ((?x89674 (ite (bvsle (_ bv4 32) ?x84449) (_ bv3 32) ?x84449)))
 (let ((?x89624 (bvsub ?x4659 (bvmul ?x89674 (_ bv36524 32)))))
 (let ((?x89481 (bvsmod ?x89624 (_ bv1461 32))))
 (let ((?x88208 (bvsdiv ?x89481 (_ bv365 32))))
 (let ((?x3865 (ite (bvsle (_ bv4 32) ?x88208) (_ bv3 32) ?x88208)))
 (let ((?x12374 (bvadd (bvadd (bvmul (bvsdiv ?x6010 (_ bv146097 32)) (_ bv400 32)) (bvmul ?x89674 (_ bv100 32))) (bvmul (bvsdiv ?x89624 (_ bv1461 32)) (_ bv4 32)))))
 (let ((?x4727 (bvadd (bvadd ?x12374 ?x3865) (_ bv1 32))))
 (let (($x83842 (or (and (= (bvsmod ?x4727 (_ bv4 32)) (_ bv0 32)) (and (distinct (bvsmod ?x4727 (_ bv100 32)) (_ bv0 32)) true)) (= (bvsmod ?x4727 (_ bv400 32)) (_ bv0 32)))))
 (let ((?x85942 (bvsub ?x89481 (bvmul ?x3865 (_ bv365 32)))))
 (let ((?x22506 (ite $x83842 (_ bv31 32) (_ bv31 32))))
 (let (($x68341 (bvsge ?x85942 ?x22506)))
 (let ((?x54586 (ite $x68341 (bvadd (bvsub ?x85942 ?x22506) (_ bv1 32)) (bvadd (bvsub ?x85942 (ite $x83842 (_ bv0 32) (_ bv0 32))) (_ bv1 32)))))
 (let ((?x29665 (ite $x83842 (_ bv60 32) (_ bv59 32))))
 (let (($x86979 (bvsge ?x85942 ?x29665)))
 (let ((?x25041 (ite $x83842 (_ bv91 32) (_ bv90 32))))
 (let (($x70490 (bvsge ?x85942 ?x25041)))
 (let ((?x71971 (ite $x70490 (bvadd (bvsub ?x85942 ?x25041) (_ bv1 32)) (ite $x86979 (bvadd (bvsub ?x85942 ?x29665) (_ bv1 32)) ?x54586))))
 (let ((?x10455 (ite $x83842 (_ bv121 32) (_ bv120 32))))
 (let (($x38283 (bvsge ?x85942 ?x10455)))
 (let ((?x33376 (ite $x83842 (_ bv152 32) (_ bv151 32))))
 (let (($x5416 (bvsge ?x85942 ?x33376)))
 (let ((?x29672 (ite $x5416 (bvadd (bvsub ?x85942 ?x33376) (_ bv1 32)) (ite $x38283 (bvadd (bvsub ?x85942 ?x10455) (_ bv1 32)) ?x71971))))
 (let ((?x43634 (ite $x83842 (_ bv182 32) (_ bv181 32))))
 (let (($x12267 (bvsge ?x85942 ?x43634)))
 (let ((?x79975 (ite $x83842 (_ bv213 32) (_ bv212 32))))
 (let (($x48132 (bvsge ?x85942 ?x79975)))
 (let ((?x44937 (ite $x48132 (bvadd (bvsub ?x85942 ?x79975) (_ bv1 32)) (ite $x12267 (bvadd (bvsub ?x85942 ?x43634) (_ bv1 32)) ?x29672))))
 (let ((?x22030 (ite $x83842 (_ bv244 32) (_ bv243 32))))
 (let (($x76915 (bvsge ?x85942 ?x22030)))
 (let ((?x46672 (ite $x83842 (_ bv274 32) (_ bv273 32))))
 (let (($x63479 (bvsge ?x85942 ?x46672)))
 (let ((?x57600 (ite $x63479 (bvadd (bvsub ?x85942 ?x46672) (_ bv1 32)) (ite $x76915 (bvadd (bvsub ?x85942 ?x22030) (_ bv1 32)) ?x44937))))
 (let ((?x54706 (ite $x83842 (_ bv305 32) (_ bv304 32))))
 (let (($x5995 (bvsge ?x85942 ?x54706)))
 (let ((?x4193 (ite $x83842 (_ bv335 32) (_ bv334 32))))
 (let (($x5105 (bvsge ?x85942 ?x4193)))
 (let ((?x61963 (ite $x5105 (bvadd (bvsub ?x85942 ?x4193) (_ bv1 32)) (ite $x5995 (bvadd (bvsub ?x85942 ?x54706) (_ bv1 32)) ?x57600))))
 (let (($x7407 (= (_ bv15 32) (_ bv0 32))))
 (let ((?x29059 (ite $x5416 (_ bv6 32) (ite $x38283 (_ bv5 32) (ite $x70490 (_ bv4 32) (ite $x86979 (_ bv3 32) (ite $x68341 (_ bv2 32) (_ bv1 32))))))))
 (let ((?x29760 (ite $x5995 (_ bv11 32) (ite $x63479 (_ bv10 32) (ite $x76915 (_ bv9 32) (ite $x48132 (_ bv8 32) (ite $x12267 (_ bv7 32) ?x29059)))))))
 (let ((?x11750 (ite $x5105 (_ bv12 32) ?x29760)))
 (let ((?x70402 (bvsub (bvadd (bvmul (ite $x7407 ?x41706 ?x4727) (_ bv12 32)) (ite $x7407 ?x47502 ?x11750)) (_ bv24003 32))))
 (and (= ?x70402 y_months) (= (bvsub (ite $x7407 ?x52849 ?x61963) (_ bv1 32)) y_beta))))))))))))))))))))))))))))))))))))))))))))))))))))))))))))))))))))))))))))))))))))))))))))))))))))))))))))))))))))))))))))))
(assert
 (let (($x58626 (bvsle (_ bv0 32) y_beta)))
(or (bvsgt y_months (bvsub (bvadd (bvmul (_ bv2023 32) (_ bv12 32)) (_ bv6 32)) (_ bv24003 32))) (and (= y_months (bvsub (bvadd (bvmul (_ bv2023 32) (_ bv12 32)) (_ bv6 32)) (_ bv24003 32))) $x58626))))
(check-sat)
